\ Model Sub model
\ LP format - for model browsing. Use MPS format to capture full model detail.
Minimize
  eta
Subject To
 eta=sumL: - L3[0] - L3[1] - L3[2] - L3[3] - L3[4] - L3[5] - L3[6] - L3[7]
   - L3[8] - L3[9] + eta = 0
 beta[0,0]: 1728.688661835543 v[0,0,1] + 942.7885263430327 v[0,0,2]
   + 498.1591291615342 v[0,0,3] + 128.3295915421797 v[0,0,4] - L3[0] <= 0
 beta[0,1]: 3893.984392791723 v[0,1,0] + 1663.686762040084 v[0,1,2]
   + 3181.618406497848 v[0,1,3] + 2390.1452796518 v[0,1,4] - L3[0] <= 0
 beta[0,2]: 1962.467431640299 v[0,2,0] + 982.8824540450188 v[0,2,1]
   + 1206.22921361701 v[0,2,3] + 1699.974676862654 v[0,2,4] - L3[0] <= 0
 beta[0,3]: 1349.535698224893 v[0,3,0] + 3212.057047625877 v[0,3,1]
   + 2845.099396569341 v[0,3,2] + 610.4516364852447 v[0,3,4] - L3[0] <= 0
 beta[0,4]: 213.0464912879518 v[0,4,0] + 3036.124679345063 v[0,4,1]
   + 1470.044604877738 v[0,4,2] + 377.0733413168504 v[0,4,3] - L3[0] <= 0
 beta[1,0]: 1591.570706822276 v[1,0,1] + 1955.627525329576 v[1,0,2]
   + 515.0505611537795 v[1,0,3] + 86.89184093614738 v[1,0,4] - L3[1] <= 0
 beta[1,1]: 2707.296731090456 v[1,1,0] + 714.0858049580321 v[1,1,2]
   + 1849.279843251605 v[1,1,3] + 2057.02288654322 v[1,1,4] - L3[1] <= 0
 beta[1,2]: 2146.998164414114 v[1,2,0] + 2094.012591372413 v[1,2,1]
   + 1422.66112923598 v[1,2,3] + 2238.448942854203 v[1,2,4] - L3[1] <= 0
 beta[1,3]: 585.4356977111324 v[1,3,0] + 2675.85486373793 v[1,3,1]
   + 883.5433298220778 v[1,3,2] + 462.6922712791062 v[1,3,4] - L3[1] <= 0
 beta[1,4]: 144.8013948043149 v[1,4,0] + 1205.135869386264 v[1,4,1]
   + 2017.315208319244 v[1,4,2] + 189.0392138065148 v[1,4,3] - L3[1] <= 0
 beta[2,0]: 4091.87335085988 v[2,0,1] + 2182.122881393188 v[2,0,2]
   + 753.2052403722546 v[2,0,3] + 102.557255951198 v[2,0,4] - L3[2] <= 0
 beta[2,1]: 4319.125071220048 v[2,1,0] + 1265.205657637265 v[2,1,2]
   + 3806.500663708798 v[2,1,3] + 4414.930365485381 v[2,1,4] - L3[2] <= 0
 beta[2,2]: 1188.621420730214 v[2,2,0] + 504.9003529355688 v[2,2,1]
   + 787.200097174424 v[2,2,3] + 789.2249615981746 v[2,2,4] - L3[2] <= 0
 beta[2,3]: 532.556993221044 v[2,3,0] + 1610.60209397704 v[2,3,1]
   + 1266.382623194717 v[2,3,2] + 459.8193076338773 v[2,3,4] - L3[2] <= 0
 beta[2,4]: 244.8898706141674 v[2,4,0] + 2280.130644553738 v[2,4,1]
   + 4022.98501447935 v[2,4,2] + 760.1338203381023 v[2,4,3] - L3[2] <= 0
 beta[3,0]: 2485.772705014362 v[3,0,1] + 2415.954765500614 v[3,0,2]
   + 391.4746418080713 v[3,0,3] + 142.5061327652044 v[3,0,4] - L3[3] <= 0
 beta[3,1]: 4243.014275332302 v[3,1,0] + 2433.976581857937 v[3,1,2]
   + 3054.613237836521 v[3,1,3] + 2265.018096294446 v[3,1,4] - L3[3] <= 0
 beta[3,2]: 1915.179821647892 v[3,2,0] + 964.637309058692 v[3,2,1]
   + 727.556601079072 v[3,2,3] + 987.2096489846716 v[3,2,4] - L3[3] <= 0
 beta[3,3]: 702.7390855640625 v[3,3,0] + 3933.645472909026 v[3,3,1]
   + 1812.472003555861 v[3,3,2] + 866.7333223476448 v[3,3,4] - L3[3] <= 0
 beta[3,4]: 275.391799198459 v[3,4,0] + 4910.305263547741 v[3,4,1]
   + 2241.7996123682 v[3,4,2] + 399.3674819711086 v[3,4,3] - L3[3] <= 0
 beta[4,0]: 3869.827185318325 v[4,0,1] + 2314.762727340228 v[4,0,2]
   + 461.6754587274195 v[4,0,3] + 120.288785766212 v[4,0,4] - L3[4] <= 0
 beta[4,1]: 2426.729531905464 v[4,1,0] + 701.3366951906826 v[4,1,2]
   + 3018.255428256481 v[4,1,3] + 2098.67385759792 v[4,1,4] - L3[4] <= 0
 beta[4,2]: 932.2598142349635 v[4,2,0] + 1129.695751103774 v[4,2,1]
   + 802.1705898898858 v[4,2,3] + 2421.717713473136 v[4,2,4] - L3[4] <= 0
 beta[4,3]: 477.0239484292588 v[4,3,0] + 1227.206639749835 v[4,3,1]
   + 831.7999306781322 v[4,3,2] + 300.4102562712508 v[4,3,4] - L3[4] <= 0
 beta[4,4]: 110.272636771265 v[4,4,0] + 1411.292734572376 v[4,4,1]
   + 1058.696913563992 v[4,4,2] + 334.2727722344781 v[4,4,3] - L3[4] <= 0
 beta[5,0]: 1499.124687065417 v[5,0,1] + 2167.021709744205 v[5,0,2]
   + 370.3034842437457 v[5,0,3] + 157.5886362004196 v[5,0,4] - L3[5] <= 0
 beta[5,1]: 1990.632017676428 v[5,1,0] + 1403.819517212022 v[5,1,2]
   + 2583.130270890932 v[5,1,3] + 1134.024396254944 v[5,1,4] - L3[5] <= 0
 beta[5,2]: 3442.434144763285 v[5,2,0] + 1060.843036763679 v[5,2,1]
   + 1965.656073637728 v[5,2,3] + 2375.85864202733 v[5,2,4] - L3[5] <= 0
 beta[5,3]: 810.5233457159559 v[5,3,0] + 1919.623694088447 v[5,3,1]
   + 1073.687856002633 v[5,3,2] + 745.8622928918489 v[5,3,4] - L3[5] <= 0
 beta[5,4]: 174.2356453262056 v[5,4,0] + 2708.30653902248 v[5,4,1]
   + 1116.059758093842 v[5,4,2] + 622.6088426134284 v[5,4,3] - L3[5] <= 0
 beta[6,0]: 912.7748755008839 v[6,0,1] + 1014.021505351747 v[6,0,2]
   + 305.4686203171776 v[6,0,3] + 47.09190703872359 v[6,0,4] - L3[6] <= 0
 beta[6,1]: 3927.802135709754 v[6,1,0] + 1976.055115959226 v[6,1,2]
   + 2691.269461074646 v[6,1,3] + 3057.320713995528 v[6,1,4] - L3[6] <= 0
 beta[6,2]: 1890.017827343718 v[6,2,0] + 862.1459300977165 v[6,2,1]
   + 1521.739557182155 v[6,2,3] + 1036.002196096825 v[6,2,4] - L3[6] <= 0
 beta[6,3]: 1031.267045030363 v[6,3,0] + 3409.796469758706 v[6,3,1]
   + 1251.379224861795 v[6,3,2] + 394.3575678920905 v[6,3,4] - L3[6] <= 0
 beta[6,4]: 188.0186233515636 v[6,4,0] + 1937.840250380459 v[6,4,1]
   + 1408.690026371379 v[6,4,2] + 541.5392396734684 v[6,4,3] - L3[6] <= 0
 beta[7,0]: 2535.367722489033 v[7,0,1] + 1279.258909041663 v[7,0,2]
   + 587.7644803929873 v[7,0,3] + 160.5082922325504 v[7,0,4] - L3[7] <= 0
 beta[7,1]: 3439.497245952009 v[7,1,0] + 1513.345408500583 v[7,1,2]
   + 2583.991151475925 v[7,1,3] + 2713.527831202424 v[7,1,4] - L3[7] <= 0
 beta[7,2]: 1605.87038865595 v[7,2,0] + 501.0456572474777 v[7,2,1]
   + 733.5839289791387 v[7,2,3] + 723.0351832771497 v[7,2,4] - L3[7] <= 0
 beta[7,3]: 659.7826739209395 v[7,3,0] + 2198.210372439215 v[7,3,1]
   + 3150.237331489358 v[7,3,2] + 608.216748081214 v[7,3,4] - L3[7] <= 0
 beta[7,4]: 73.41833125218766 v[7,4,0] + 1332.558899174626 v[7,4,1]
   + 1108.647546246131 v[7,4,2] + 375.4918600374957 v[7,4,3] - L3[7] <= 0
 beta[8,0]: 3260.893819767902 v[8,0,1] + 1533.962210665313 v[8,0,2]
   + 653.2743569323535 v[8,0,3] + 170.0803099277295 v[8,0,4] - L3[8] <= 0
 beta[8,1]: 2886.512024560326 v[8,1,0] + 539.1123982332716 v[8,1,2]
   + 1637.955567134321 v[8,1,3] + 1656.212852955805 v[8,1,4] - L3[8] <= 0
 beta[8,2]: 1898.615565157304 v[8,2,0] + 1392.512479271108 v[8,2,1]
   + 1149.988053827101 v[8,2,3] + 1201.218761721856 v[8,2,4] - L3[8] <= 0
 beta[8,3]: 907.4099602988769 v[8,3,0] + 2640.754544937999 v[8,3,1]
   + 2252.599383084037 v[8,3,2] + 610.9642995390988 v[8,3,4] - L3[8] <= 0
 beta[8,4]: 189.9253578824315 v[8,4,0] + 3704.231353616379 v[8,4,1]
   + 3635.92859388709 v[8,4,2] + 656.8512438025225 v[8,4,3] - L3[8] <= 0
 beta[9,0]: 2509.823208603343 v[9,0,1] + 845.6744801738578 v[9,0,2]
   + 406.6802469575915 v[9,0,3] + 165.0546897112885 v[9,0,4] - L3[9] <= 0
 beta[9,1]: 3588.268615479592 v[9,1,0] + 918.6788804251428 v[9,1,2]
   + 1030.687256222505 v[9,1,3] + 2061.380145198868 v[9,1,4] - L3[9] <= 0
 beta[9,2]: 2504.991361665034 v[9,2,0] + 2246.543731789483 v[9,2,1]
   + 1759.520361216411 v[9,2,3] + 2558.730831371212 v[9,2,4] - L3[9] <= 0
 beta[9,3]: 1497.390778961948 v[9,3,0] + 3989.779088016307 v[9,3,1]
   + 3565.884146976538 v[9,3,2] + 947.8848588817886 v[9,3,4] - L3[9] <= 0
 beta[9,4]: 154.26824909417 v[9,4,0] + 3378.023936804489 v[9,4,1]
   + 2150.673245716567 v[9,4,2] + 643.1688300558532 v[9,4,3] - L3[9] <= 0
 gamma[0,0,0]: v[0,0,0] - u[0,0] <= 0
 gamma[0,0,1]: v[0,0,1] - u[0,1] <= 0
 gamma[0,0,2]: v[0,0,2] - u[0,2] <= 1
 gamma[0,0,3]: v[0,0,3] - u[0,3] <= 1
 gamma[0,0,4]: v[0,0,4] - u[0,4] <= 0
 gamma[0,1,0]: v[0,1,0] - u[0,0] <= 0
 gamma[0,1,1]: v[0,1,1] - u[0,1] <= 0
 gamma[0,1,2]: v[0,1,2] - u[0,2] <= 1
 gamma[0,1,3]: v[0,1,3] - u[0,3] <= 1
 gamma[0,1,4]: v[0,1,4] - u[0,4] <= 0
 gamma[0,2,0]: v[0,2,0] - u[0,0] <= 0
 gamma[0,2,1]: v[0,2,1] - u[0,1] <= 0
 gamma[0,2,2]: v[0,2,2] - u[0,2] <= 1
 gamma[0,2,3]: v[0,2,3] - u[0,3] <= 1
 gamma[0,2,4]: v[0,2,4] - u[0,4] <= 0
 gamma[0,3,0]: v[0,3,0] - u[0,0] <= 0
 gamma[0,3,1]: v[0,3,1] - u[0,1] <= 0
 gamma[0,3,2]: v[0,3,2] - u[0,2] <= 1
 gamma[0,3,3]: v[0,3,3] - u[0,3] <= 1
 gamma[0,3,4]: v[0,3,4] - u[0,4] <= 0
 gamma[0,4,0]: v[0,4,0] - u[0,0] <= 0
 gamma[0,4,1]: v[0,4,1] - u[0,1] <= 0
 gamma[0,4,2]: v[0,4,2] - u[0,2] <= 1
 gamma[0,4,3]: v[0,4,3] - u[0,3] <= 1
 gamma[0,4,4]: v[0,4,4] - u[0,4] <= 0
 gamma[1,0,0]: v[1,0,0] - u[1,0] <= 0
 gamma[1,0,1]: v[1,0,1] - u[1,1] <= 0
 gamma[1,0,2]: v[1,0,2] - u[1,2] <= 1
 gamma[1,0,3]: v[1,0,3] - u[1,3] <= 1
 gamma[1,0,4]: v[1,0,4] - u[1,4] <= 0
 gamma[1,1,0]: v[1,1,0] - u[1,0] <= 0
 gamma[1,1,1]: v[1,1,1] - u[1,1] <= 0
 gamma[1,1,2]: v[1,1,2] - u[1,2] <= 1
 gamma[1,1,3]: v[1,1,3] - u[1,3] <= 1
 gamma[1,1,4]: v[1,1,4] - u[1,4] <= 0
 gamma[1,2,0]: v[1,2,0] - u[1,0] <= 0
 gamma[1,2,1]: v[1,2,1] - u[1,1] <= 0
 gamma[1,2,2]: v[1,2,2] - u[1,2] <= 1
 gamma[1,2,3]: v[1,2,3] - u[1,3] <= 1
 gamma[1,2,4]: v[1,2,4] - u[1,4] <= 0
 gamma[1,3,0]: v[1,3,0] - u[1,0] <= 0
 gamma[1,3,1]: v[1,3,1] - u[1,1] <= 0
 gamma[1,3,2]: v[1,3,2] - u[1,2] <= 1
 gamma[1,3,3]: v[1,3,3] - u[1,3] <= 1
 gamma[1,3,4]: v[1,3,4] - u[1,4] <= 0
 gamma[1,4,0]: v[1,4,0] - u[1,0] <= 0
 gamma[1,4,1]: v[1,4,1] - u[1,1] <= 0
 gamma[1,4,2]: v[1,4,2] - u[1,2] <= 1
 gamma[1,4,3]: v[1,4,3] - u[1,3] <= 1
 gamma[1,4,4]: v[1,4,4] - u[1,4] <= 0
 gamma[2,0,0]: v[2,0,0] - u[2,0] <= 0
 gamma[2,0,1]: v[2,0,1] - u[2,1] <= 0
 gamma[2,0,2]: v[2,0,2] - u[2,2] <= 1
 gamma[2,0,3]: v[2,0,3] - u[2,3] <= 1
 gamma[2,0,4]: v[2,0,4] - u[2,4] <= 0
 gamma[2,1,0]: v[2,1,0] - u[2,0] <= 0
 gamma[2,1,1]: v[2,1,1] - u[2,1] <= 0
 gamma[2,1,2]: v[2,1,2] - u[2,2] <= 1
 gamma[2,1,3]: v[2,1,3] - u[2,3] <= 1
 gamma[2,1,4]: v[2,1,4] - u[2,4] <= 0
 gamma[2,2,0]: v[2,2,0] - u[2,0] <= 0
 gamma[2,2,1]: v[2,2,1] - u[2,1] <= 0
 gamma[2,2,2]: v[2,2,2] - u[2,2] <= 1
 gamma[2,2,3]: v[2,2,3] - u[2,3] <= 1
 gamma[2,2,4]: v[2,2,4] - u[2,4] <= 0
 gamma[2,3,0]: v[2,3,0] - u[2,0] <= 0
 gamma[2,3,1]: v[2,3,1] - u[2,1] <= 0
 gamma[2,3,2]: v[2,3,2] - u[2,2] <= 1
 gamma[2,3,3]: v[2,3,3] - u[2,3] <= 1
 gamma[2,3,4]: v[2,3,4] - u[2,4] <= 0
 gamma[2,4,0]: v[2,4,0] - u[2,0] <= 0
 gamma[2,4,1]: v[2,4,1] - u[2,1] <= 0
 gamma[2,4,2]: v[2,4,2] - u[2,2] <= 1
 gamma[2,4,3]: v[2,4,3] - u[2,3] <= 1
 gamma[2,4,4]: v[2,4,4] - u[2,4] <= 0
 gamma[3,0,0]: v[3,0,0] - u[3,0] <= 0
 gamma[3,0,1]: v[3,0,1] - u[3,1] <= 0
 gamma[3,0,2]: v[3,0,2] - u[3,2] <= 1
 gamma[3,0,3]: v[3,0,3] - u[3,3] <= 1
 gamma[3,0,4]: v[3,0,4] - u[3,4] <= 0
 gamma[3,1,0]: v[3,1,0] - u[3,0] <= 0
 gamma[3,1,1]: v[3,1,1] - u[3,1] <= 0
 gamma[3,1,2]: v[3,1,2] - u[3,2] <= 1
 gamma[3,1,3]: v[3,1,3] - u[3,3] <= 1
 gamma[3,1,4]: v[3,1,4] - u[3,4] <= 0
 gamma[3,2,0]: v[3,2,0] - u[3,0] <= 0
 gamma[3,2,1]: v[3,2,1] - u[3,1] <= 0
 gamma[3,2,2]: v[3,2,2] - u[3,2] <= 1
 gamma[3,2,3]: v[3,2,3] - u[3,3] <= 1
 gamma[3,2,4]: v[3,2,4] - u[3,4] <= 0
 gamma[3,3,0]: v[3,3,0] - u[3,0] <= 0
 gamma[3,3,1]: v[3,3,1] - u[3,1] <= 0
 gamma[3,3,2]: v[3,3,2] - u[3,2] <= 1
 gamma[3,3,3]: v[3,3,3] - u[3,3] <= 1
 gamma[3,3,4]: v[3,3,4] - u[3,4] <= 0
 gamma[3,4,0]: v[3,4,0] - u[3,0] <= 0
 gamma[3,4,1]: v[3,4,1] - u[3,1] <= 0
 gamma[3,4,2]: v[3,4,2] - u[3,2] <= 1
 gamma[3,4,3]: v[3,4,3] - u[3,3] <= 1
 gamma[3,4,4]: v[3,4,4] - u[3,4] <= 0
 gamma[4,0,0]: v[4,0,0] - u[4,0] <= 0
 gamma[4,0,1]: v[4,0,1] - u[4,1] <= 0
 gamma[4,0,2]: v[4,0,2] - u[4,2] <= 1
 gamma[4,0,3]: v[4,0,3] - u[4,3] <= 1
 gamma[4,0,4]: v[4,0,4] - u[4,4] <= 0
 gamma[4,1,0]: v[4,1,0] - u[4,0] <= 0
 gamma[4,1,1]: v[4,1,1] - u[4,1] <= 0
 gamma[4,1,2]: v[4,1,2] - u[4,2] <= 1
 gamma[4,1,3]: v[4,1,3] - u[4,3] <= 1
 gamma[4,1,4]: v[4,1,4] - u[4,4] <= 0
 gamma[4,2,0]: v[4,2,0] - u[4,0] <= 0
 gamma[4,2,1]: v[4,2,1] - u[4,1] <= 0
 gamma[4,2,2]: v[4,2,2] - u[4,2] <= 1
 gamma[4,2,3]: v[4,2,3] - u[4,3] <= 1
 gamma[4,2,4]: v[4,2,4] - u[4,4] <= 0
 gamma[4,3,0]: v[4,3,0] - u[4,0] <= 0
 gamma[4,3,1]: v[4,3,1] - u[4,1] <= 0
 gamma[4,3,2]: v[4,3,2] - u[4,2] <= 1
 gamma[4,3,3]: v[4,3,3] - u[4,3] <= 1
 gamma[4,3,4]: v[4,3,4] - u[4,4] <= 0
 gamma[4,4,0]: v[4,4,0] - u[4,0] <= 0
 gamma[4,4,1]: v[4,4,1] - u[4,1] <= 0
 gamma[4,4,2]: v[4,4,2] - u[4,2] <= 1
 gamma[4,4,3]: v[4,4,3] - u[4,3] <= 1
 gamma[4,4,4]: v[4,4,4] - u[4,4] <= 0
 gamma[5,0,0]: v[5,0,0] - u[5,0] <= 0
 gamma[5,0,1]: v[5,0,1] - u[5,1] <= 0
 gamma[5,0,2]: v[5,0,2] - u[5,2] <= 1
 gamma[5,0,3]: v[5,0,3] - u[5,3] <= 1
 gamma[5,0,4]: v[5,0,4] - u[5,4] <= 0
 gamma[5,1,0]: v[5,1,0] - u[5,0] <= 0
 gamma[5,1,1]: v[5,1,1] - u[5,1] <= 0
 gamma[5,1,2]: v[5,1,2] - u[5,2] <= 1
 gamma[5,1,3]: v[5,1,3] - u[5,3] <= 1
 gamma[5,1,4]: v[5,1,4] - u[5,4] <= 0
 gamma[5,2,0]: v[5,2,0] - u[5,0] <= 0
 gamma[5,2,1]: v[5,2,1] - u[5,1] <= 0
 gamma[5,2,2]: v[5,2,2] - u[5,2] <= 1
 gamma[5,2,3]: v[5,2,3] - u[5,3] <= 1
 gamma[5,2,4]: v[5,2,4] - u[5,4] <= 0
 gamma[5,3,0]: v[5,3,0] - u[5,0] <= 0
 gamma[5,3,1]: v[5,3,1] - u[5,1] <= 0
 gamma[5,3,2]: v[5,3,2] - u[5,2] <= 1
 gamma[5,3,3]: v[5,3,3] - u[5,3] <= 1
 gamma[5,3,4]: v[5,3,4] - u[5,4] <= 0
 gamma[5,4,0]: v[5,4,0] - u[5,0] <= 0
 gamma[5,4,1]: v[5,4,1] - u[5,1] <= 0
 gamma[5,4,2]: v[5,4,2] - u[5,2] <= 1
 gamma[5,4,3]: v[5,4,3] - u[5,3] <= 1
 gamma[5,4,4]: v[5,4,4] - u[5,4] <= 0
 gamma[6,0,0]: v[6,0,0] - u[6,0] <= 0
 gamma[6,0,1]: v[6,0,1] - u[6,1] <= 0
 gamma[6,0,2]: v[6,0,2] - u[6,2] <= 1
 gamma[6,0,3]: v[6,0,3] - u[6,3] <= 1
 gamma[6,0,4]: v[6,0,4] - u[6,4] <= 0
 gamma[6,1,0]: v[6,1,0] - u[6,0] <= 0
 gamma[6,1,1]: v[6,1,1] - u[6,1] <= 0
 gamma[6,1,2]: v[6,1,2] - u[6,2] <= 1
 gamma[6,1,3]: v[6,1,3] - u[6,3] <= 1
 gamma[6,1,4]: v[6,1,4] - u[6,4] <= 0
 gamma[6,2,0]: v[6,2,0] - u[6,0] <= 0
 gamma[6,2,1]: v[6,2,1] - u[6,1] <= 0
 gamma[6,2,2]: v[6,2,2] - u[6,2] <= 1
 gamma[6,2,3]: v[6,2,3] - u[6,3] <= 1
 gamma[6,2,4]: v[6,2,4] - u[6,4] <= 0
 gamma[6,3,0]: v[6,3,0] - u[6,0] <= 0
 gamma[6,3,1]: v[6,3,1] - u[6,1] <= 0
 gamma[6,3,2]: v[6,3,2] - u[6,2] <= 1
 gamma[6,3,3]: v[6,3,3] - u[6,3] <= 1
 gamma[6,3,4]: v[6,3,4] - u[6,4] <= 0
 gamma[6,4,0]: v[6,4,0] - u[6,0] <= 0
 gamma[6,4,1]: v[6,4,1] - u[6,1] <= 0
 gamma[6,4,2]: v[6,4,2] - u[6,2] <= 1
 gamma[6,4,3]: v[6,4,3] - u[6,3] <= 1
 gamma[6,4,4]: v[6,4,4] - u[6,4] <= 0
 gamma[7,0,0]: v[7,0,0] - u[7,0] <= 0
 gamma[7,0,1]: v[7,0,1] - u[7,1] <= 0
 gamma[7,0,2]: v[7,0,2] - u[7,2] <= 1
 gamma[7,0,3]: v[7,0,3] - u[7,3] <= 1
 gamma[7,0,4]: v[7,0,4] - u[7,4] <= 0
 gamma[7,1,0]: v[7,1,0] - u[7,0] <= 0
 gamma[7,1,1]: v[7,1,1] - u[7,1] <= 0
 gamma[7,1,2]: v[7,1,2] - u[7,2] <= 1
 gamma[7,1,3]: v[7,1,3] - u[7,3] <= 1
 gamma[7,1,4]: v[7,1,4] - u[7,4] <= 0
 gamma[7,2,0]: v[7,2,0] - u[7,0] <= 0
 gamma[7,2,1]: v[7,2,1] - u[7,1] <= 0
 gamma[7,2,2]: v[7,2,2] - u[7,2] <= 1
 gamma[7,2,3]: v[7,2,3] - u[7,3] <= 1
 gamma[7,2,4]: v[7,2,4] - u[7,4] <= 0
 gamma[7,3,0]: v[7,3,0] - u[7,0] <= 0
 gamma[7,3,1]: v[7,3,1] - u[7,1] <= 0
 gamma[7,3,2]: v[7,3,2] - u[7,2] <= 1
 gamma[7,3,3]: v[7,3,3] - u[7,3] <= 1
 gamma[7,3,4]: v[7,3,4] - u[7,4] <= 0
 gamma[7,4,0]: v[7,4,0] - u[7,0] <= 0
 gamma[7,4,1]: v[7,4,1] - u[7,1] <= 0
 gamma[7,4,2]: v[7,4,2] - u[7,2] <= 1
 gamma[7,4,3]: v[7,4,3] - u[7,3] <= 1
 gamma[7,4,4]: v[7,4,4] - u[7,4] <= 0
 gamma[8,0,0]: v[8,0,0] - u[8,0] <= 0
 gamma[8,0,1]: v[8,0,1] - u[8,1] <= 0
 gamma[8,0,2]: v[8,0,2] - u[8,2] <= 1
 gamma[8,0,3]: v[8,0,3] - u[8,3] <= 1
 gamma[8,0,4]: v[8,0,4] - u[8,4] <= 0
 gamma[8,1,0]: v[8,1,0] - u[8,0] <= 0
 gamma[8,1,1]: v[8,1,1] - u[8,1] <= 0
 gamma[8,1,2]: v[8,1,2] - u[8,2] <= 1
 gamma[8,1,3]: v[8,1,3] - u[8,3] <= 1
 gamma[8,1,4]: v[8,1,4] - u[8,4] <= 0
 gamma[8,2,0]: v[8,2,0] - u[8,0] <= 0
 gamma[8,2,1]: v[8,2,1] - u[8,1] <= 0
 gamma[8,2,2]: v[8,2,2] - u[8,2] <= 1
 gamma[8,2,3]: v[8,2,3] - u[8,3] <= 1
 gamma[8,2,4]: v[8,2,4] - u[8,4] <= 0
 gamma[8,3,0]: v[8,3,0] - u[8,0] <= 0
 gamma[8,3,1]: v[8,3,1] - u[8,1] <= 0
 gamma[8,3,2]: v[8,3,2] - u[8,2] <= 1
 gamma[8,3,3]: v[8,3,3] - u[8,3] <= 1
 gamma[8,3,4]: v[8,3,4] - u[8,4] <= 0
 gamma[8,4,0]: v[8,4,0] - u[8,0] <= 0
 gamma[8,4,1]: v[8,4,1] - u[8,1] <= 0
 gamma[8,4,2]: v[8,4,2] - u[8,2] <= 1
 gamma[8,4,3]: v[8,4,3] - u[8,3] <= 1
 gamma[8,4,4]: v[8,4,4] - u[8,4] <= 0
 gamma[9,0,0]: v[9,0,0] - u[9,0] <= 0
 gamma[9,0,1]: v[9,0,1] - u[9,1] <= 0
 gamma[9,0,2]: v[9,0,2] - u[9,2] <= 1
 gamma[9,0,3]: v[9,0,3] - u[9,3] <= 1
 gamma[9,0,4]: v[9,0,4] - u[9,4] <= 0
 gamma[9,1,0]: v[9,1,0] - u[9,0] <= 0
 gamma[9,1,1]: v[9,1,1] - u[9,1] <= 0
 gamma[9,1,2]: v[9,1,2] - u[9,2] <= 1
 gamma[9,1,3]: v[9,1,3] - u[9,3] <= 1
 gamma[9,1,4]: v[9,1,4] - u[9,4] <= 0
 gamma[9,2,0]: v[9,2,0] - u[9,0] <= 0
 gamma[9,2,1]: v[9,2,1] - u[9,1] <= 0
 gamma[9,2,2]: v[9,2,2] - u[9,2] <= 1
 gamma[9,2,3]: v[9,2,3] - u[9,3] <= 1
 gamma[9,2,4]: v[9,2,4] - u[9,4] <= 0
 gamma[9,3,0]: v[9,3,0] - u[9,0] <= 0
 gamma[9,3,1]: v[9,3,1] - u[9,1] <= 0
 gamma[9,3,2]: v[9,3,2] - u[9,2] <= 1
 gamma[9,3,3]: v[9,3,3] - u[9,3] <= 1
 gamma[9,3,4]: v[9,3,4] - u[9,4] <= 0
 gamma[9,4,0]: v[9,4,0] - u[9,0] <= 0
 gamma[9,4,1]: v[9,4,1] - u[9,1] <= 0
 gamma[9,4,2]: v[9,4,2] - u[9,2] <= 1
 gamma[9,4,3]: v[9,4,3] - u[9,3] <= 1
 gamma[9,4,4]: v[9,4,4] - u[9,4] <= 0
 delta[0,0,0]: v[0,0,0] <= 1
 delta[0,0,1]: v[0,0,1] <= 1
 delta[0,0,2]: v[0,0,2] <= 1
 delta[0,0,3]: v[0,0,3] <= 0
 delta[0,0,4]: v[0,0,4] <= 1
 delta[0,1,0]: v[0,1,0] <= 1
 delta[0,1,1]: v[0,1,1] <= 1
 delta[0,1,2]: v[0,1,2] <= 1
 delta[0,1,3]: v[0,1,3] <= 0
 delta[0,1,4]: v[0,1,4] <= 1
 delta[0,2,0]: v[0,2,0] <= 1
 delta[0,2,1]: v[0,2,1] <= 1
 delta[0,2,2]: v[0,2,2] <= 1
 delta[0,2,3]: v[0,2,3] <= 0
 delta[0,2,4]: v[0,2,4] <= 1
 delta[0,3,0]: v[0,3,0] <= 1
 delta[0,3,1]: v[0,3,1] <= 1
 delta[0,3,2]: v[0,3,2] <= 1
 delta[0,3,3]: v[0,3,3] <= 0
 delta[0,3,4]: v[0,3,4] <= 1
 delta[0,4,0]: v[0,4,0] <= 1
 delta[0,4,1]: v[0,4,1] <= 1
 delta[0,4,2]: v[0,4,2] <= 1
 delta[0,4,3]: v[0,4,3] <= 0
 delta[0,4,4]: v[0,4,4] <= 1
 delta[1,0,0]: v[1,0,0] <= 1
 delta[1,0,1]: v[1,0,1] <= 0
 delta[1,0,2]: v[1,0,2] <= 1
 delta[1,0,3]: v[1,0,3] <= 1
 delta[1,0,4]: v[1,0,4] <= 1
 delta[1,1,0]: v[1,1,0] <= 1
 delta[1,1,1]: v[1,1,1] <= 0
 delta[1,1,2]: v[1,1,2] <= 1
 delta[1,1,3]: v[1,1,3] <= 1
 delta[1,1,4]: v[1,1,4] <= 1
 delta[1,2,0]: v[1,2,0] <= 1
 delta[1,2,1]: v[1,2,1] <= 0
 delta[1,2,2]: v[1,2,2] <= 1
 delta[1,2,3]: v[1,2,3] <= 1
 delta[1,2,4]: v[1,2,4] <= 1
 delta[1,3,0]: v[1,3,0] <= 1
 delta[1,3,1]: v[1,3,1] <= 0
 delta[1,3,2]: v[1,3,2] <= 1
 delta[1,3,3]: v[1,3,3] <= 1
 delta[1,3,4]: v[1,3,4] <= 1
 delta[1,4,0]: v[1,4,0] <= 1
 delta[1,4,1]: v[1,4,1] <= 0
 delta[1,4,2]: v[1,4,2] <= 1
 delta[1,4,3]: v[1,4,3] <= 1
 delta[1,4,4]: v[1,4,4] <= 1
 delta[2,0,0]: v[2,0,0] <= 1
 delta[2,0,1]: v[2,0,1] <= 1
 delta[2,0,2]: v[2,0,2] <= 0
 delta[2,0,3]: v[2,0,3] <= 1
 delta[2,0,4]: v[2,0,4] <= 1
 delta[2,1,0]: v[2,1,0] <= 1
 delta[2,1,1]: v[2,1,1] <= 1
 delta[2,1,2]: v[2,1,2] <= 0
 delta[2,1,3]: v[2,1,3] <= 1
 delta[2,1,4]: v[2,1,4] <= 1
 delta[2,2,0]: v[2,2,0] <= 1
 delta[2,2,1]: v[2,2,1] <= 1
 delta[2,2,2]: v[2,2,2] <= 0
 delta[2,2,3]: v[2,2,3] <= 1
 delta[2,2,4]: v[2,2,4] <= 1
 delta[2,3,0]: v[2,3,0] <= 1
 delta[2,3,1]: v[2,3,1] <= 1
 delta[2,3,2]: v[2,3,2] <= 0
 delta[2,3,3]: v[2,3,3] <= 1
 delta[2,3,4]: v[2,3,4] <= 1
 delta[2,4,0]: v[2,4,0] <= 1
 delta[2,4,1]: v[2,4,1] <= 1
 delta[2,4,2]: v[2,4,2] <= 0
 delta[2,4,3]: v[2,4,3] <= 1
 delta[2,4,4]: v[2,4,4] <= 1
 delta[3,0,0]: v[3,0,0] <= 1
 delta[3,0,1]: v[3,0,1] <= 1
 delta[3,0,2]: v[3,0,2] <= 1
 delta[3,0,3]: v[3,0,3] <= 0
 delta[3,0,4]: v[3,0,4] <= 1
 delta[3,1,0]: v[3,1,0] <= 1
 delta[3,1,1]: v[3,1,1] <= 1
 delta[3,1,2]: v[3,1,2] <= 1
 delta[3,1,3]: v[3,1,3] <= 0
 delta[3,1,4]: v[3,1,4] <= 1
 delta[3,2,0]: v[3,2,0] <= 1
 delta[3,2,1]: v[3,2,1] <= 1
 delta[3,2,2]: v[3,2,2] <= 1
 delta[3,2,3]: v[3,2,3] <= 0
 delta[3,2,4]: v[3,2,4] <= 1
 delta[3,3,0]: v[3,3,0] <= 1
 delta[3,3,1]: v[3,3,1] <= 1
 delta[3,3,2]: v[3,3,2] <= 1
 delta[3,3,3]: v[3,3,3] <= 0
 delta[3,3,4]: v[3,3,4] <= 1
 delta[3,4,0]: v[3,4,0] <= 1
 delta[3,4,1]: v[3,4,1] <= 1
 delta[3,4,2]: v[3,4,2] <= 1
 delta[3,4,3]: v[3,4,3] <= 0
 delta[3,4,4]: v[3,4,4] <= 1
 delta[4,0,0]: v[4,0,0] <= 1
 delta[4,0,1]: v[4,0,1] <= 1
 delta[4,0,2]: v[4,0,2] <= 1
 delta[4,0,3]: v[4,0,3] <= 0
 delta[4,0,4]: v[4,0,4] <= 1
 delta[4,1,0]: v[4,1,0] <= 1
 delta[4,1,1]: v[4,1,1] <= 1
 delta[4,1,2]: v[4,1,2] <= 1
 delta[4,1,3]: v[4,1,3] <= 0
 delta[4,1,4]: v[4,1,4] <= 1
 delta[4,2,0]: v[4,2,0] <= 1
 delta[4,2,1]: v[4,2,1] <= 1
 delta[4,2,2]: v[4,2,2] <= 1
 delta[4,2,3]: v[4,2,3] <= 0
 delta[4,2,4]: v[4,2,4] <= 1
 delta[4,3,0]: v[4,3,0] <= 1
 delta[4,3,1]: v[4,3,1] <= 1
 delta[4,3,2]: v[4,3,2] <= 1
 delta[4,3,3]: v[4,3,3] <= 0
 delta[4,3,4]: v[4,3,4] <= 1
 delta[4,4,0]: v[4,4,0] <= 1
 delta[4,4,1]: v[4,4,1] <= 1
 delta[4,4,2]: v[4,4,2] <= 1
 delta[4,4,3]: v[4,4,3] <= 0
 delta[4,4,4]: v[4,4,4] <= 1
 delta[5,0,0]: v[5,0,0] <= 1
 delta[5,0,1]: v[5,0,1] <= 0
 delta[5,0,2]: v[5,0,2] <= 1
 delta[5,0,3]: v[5,0,3] <= 1
 delta[5,0,4]: v[5,0,4] <= 1
 delta[5,1,0]: v[5,1,0] <= 1
 delta[5,1,1]: v[5,1,1] <= 0
 delta[5,1,2]: v[5,1,2] <= 1
 delta[5,1,3]: v[5,1,3] <= 1
 delta[5,1,4]: v[5,1,4] <= 1
 delta[5,2,0]: v[5,2,0] <= 1
 delta[5,2,1]: v[5,2,1] <= 0
 delta[5,2,2]: v[5,2,2] <= 1
 delta[5,2,3]: v[5,2,3] <= 1
 delta[5,2,4]: v[5,2,4] <= 1
 delta[5,3,0]: v[5,3,0] <= 1
 delta[5,3,1]: v[5,3,1] <= 0
 delta[5,3,2]: v[5,3,2] <= 1
 delta[5,3,3]: v[5,3,3] <= 1
 delta[5,3,4]: v[5,3,4] <= 1
 delta[5,4,0]: v[5,4,0] <= 1
 delta[5,4,1]: v[5,4,1] <= 0
 delta[5,4,2]: v[5,4,2] <= 1
 delta[5,4,3]: v[5,4,3] <= 1
 delta[5,4,4]: v[5,4,4] <= 1
 delta[6,0,0]: v[6,0,0] <= 1
 delta[6,0,1]: v[6,0,1] <= 1
 delta[6,0,2]: v[6,0,2] <= 0
 delta[6,0,3]: v[6,0,3] <= 1
 delta[6,0,4]: v[6,0,4] <= 1
 delta[6,1,0]: v[6,1,0] <= 1
 delta[6,1,1]: v[6,1,1] <= 1
 delta[6,1,2]: v[6,1,2] <= 0
 delta[6,1,3]: v[6,1,3] <= 1
 delta[6,1,4]: v[6,1,4] <= 1
 delta[6,2,0]: v[6,2,0] <= 1
 delta[6,2,1]: v[6,2,1] <= 1
 delta[6,2,2]: v[6,2,2] <= 0
 delta[6,2,3]: v[6,2,3] <= 1
 delta[6,2,4]: v[6,2,4] <= 1
 delta[6,3,0]: v[6,3,0] <= 1
 delta[6,3,1]: v[6,3,1] <= 1
 delta[6,3,2]: v[6,3,2] <= 0
 delta[6,3,3]: v[6,3,3] <= 1
 delta[6,3,4]: v[6,3,4] <= 1
 delta[6,4,0]: v[6,4,0] <= 1
 delta[6,4,1]: v[6,4,1] <= 1
 delta[6,4,2]: v[6,4,2] <= 0
 delta[6,4,3]: v[6,4,3] <= 1
 delta[6,4,4]: v[6,4,4] <= 1
 delta[7,0,0]: v[7,0,0] <= 1
 delta[7,0,1]: v[7,0,1] <= 0
 delta[7,0,2]: v[7,0,2] <= 1
 delta[7,0,3]: v[7,0,3] <= 1
 delta[7,0,4]: v[7,0,4] <= 1
 delta[7,1,0]: v[7,1,0] <= 1
 delta[7,1,1]: v[7,1,1] <= 0
 delta[7,1,2]: v[7,1,2] <= 1
 delta[7,1,3]: v[7,1,3] <= 1
 delta[7,1,4]: v[7,1,4] <= 1
 delta[7,2,0]: v[7,2,0] <= 1
 delta[7,2,1]: v[7,2,1] <= 0
 delta[7,2,2]: v[7,2,2] <= 1
 delta[7,2,3]: v[7,2,3] <= 1
 delta[7,2,4]: v[7,2,4] <= 1
 delta[7,3,0]: v[7,3,0] <= 1
 delta[7,3,1]: v[7,3,1] <= 0
 delta[7,3,2]: v[7,3,2] <= 1
 delta[7,3,3]: v[7,3,3] <= 1
 delta[7,3,4]: v[7,3,4] <= 1
 delta[7,4,0]: v[7,4,0] <= 1
 delta[7,4,1]: v[7,4,1] <= 0
 delta[7,4,2]: v[7,4,2] <= 1
 delta[7,4,3]: v[7,4,3] <= 1
 delta[7,4,4]: v[7,4,4] <= 1
 delta[8,0,0]: v[8,0,0] <= 1
 delta[8,0,1]: v[8,0,1] <= 1
 delta[8,0,2]: v[8,0,2] <= 0
 delta[8,0,3]: v[8,0,3] <= 1
 delta[8,0,4]: v[8,0,4] <= 1
 delta[8,1,0]: v[8,1,0] <= 1
 delta[8,1,1]: v[8,1,1] <= 1
 delta[8,1,2]: v[8,1,2] <= 0
 delta[8,1,3]: v[8,1,3] <= 1
 delta[8,1,4]: v[8,1,4] <= 1
 delta[8,2,0]: v[8,2,0] <= 1
 delta[8,2,1]: v[8,2,1] <= 1
 delta[8,2,2]: v[8,2,2] <= 0
 delta[8,2,3]: v[8,2,3] <= 1
 delta[8,2,4]: v[8,2,4] <= 1
 delta[8,3,0]: v[8,3,0] <= 1
 delta[8,3,1]: v[8,3,1] <= 1
 delta[8,3,2]: v[8,3,2] <= 0
 delta[8,3,3]: v[8,3,3] <= 1
 delta[8,3,4]: v[8,3,4] <= 1
 delta[8,4,0]: v[8,4,0] <= 1
 delta[8,4,1]: v[8,4,1] <= 1
 delta[8,4,2]: v[8,4,2] <= 0
 delta[8,4,3]: v[8,4,3] <= 1
 delta[8,4,4]: v[8,4,4] <= 1
 delta[9,0,0]: v[9,0,0] <= 1
 delta[9,0,1]: v[9,0,1] <= 1
 delta[9,0,2]: v[9,0,2] <= 1
 delta[9,0,3]: v[9,0,3] <= 0
 delta[9,0,4]: v[9,0,4] <= 1
 delta[9,1,0]: v[9,1,0] <= 1
 delta[9,1,1]: v[9,1,1] <= 1
 delta[9,1,2]: v[9,1,2] <= 1
 delta[9,1,3]: v[9,1,3] <= 0
 delta[9,1,4]: v[9,1,4] <= 1
 delta[9,2,0]: v[9,2,0] <= 1
 delta[9,2,1]: v[9,2,1] <= 1
 delta[9,2,2]: v[9,2,2] <= 1
 delta[9,2,3]: v[9,2,3] <= 0
 delta[9,2,4]: v[9,2,4] <= 1
 delta[9,3,0]: v[9,3,0] <= 1
 delta[9,3,1]: v[9,3,1] <= 1
 delta[9,3,2]: v[9,3,2] <= 1
 delta[9,3,3]: v[9,3,3] <= 0
 delta[9,3,4]: v[9,3,4] <= 1
 delta[9,4,0]: v[9,4,0] <= 1
 delta[9,4,1]: v[9,4,1] <= 1
 delta[9,4,2]: v[9,4,2] <= 1
 delta[9,4,3]: v[9,4,3] <= 0
 delta[9,4,4]: v[9,4,4] <= 1
 epsilon[0,0]: v[0,0,0] + v[0,0,1] + v[0,0,2] + v[0,0,3] + v[0,0,4] = 1
 epsilon[0,1]: v[0,1,0] + v[0,1,1] + v[0,1,2] + v[0,1,3] + v[0,1,4] = 1
 epsilon[0,2]: v[0,2,0] + v[0,2,1] + v[0,2,2] + v[0,2,3] + v[0,2,4] = 1
 epsilon[0,3]: v[0,3,0] + v[0,3,1] + v[0,3,2] + v[0,3,3] + v[0,3,4] = 1
 epsilon[0,4]: v[0,4,0] + v[0,4,1] + v[0,4,2] + v[0,4,3] + v[0,4,4] = 1
 epsilon[1,0]: v[1,0,0] + v[1,0,1] + v[1,0,2] + v[1,0,3] + v[1,0,4] = 1
 epsilon[1,1]: v[1,1,0] + v[1,1,1] + v[1,1,2] + v[1,1,3] + v[1,1,4] = 1
 epsilon[1,2]: v[1,2,0] + v[1,2,1] + v[1,2,2] + v[1,2,3] + v[1,2,4] = 1
 epsilon[1,3]: v[1,3,0] + v[1,3,1] + v[1,3,2] + v[1,3,3] + v[1,3,4] = 1
 epsilon[1,4]: v[1,4,0] + v[1,4,1] + v[1,4,2] + v[1,4,3] + v[1,4,4] = 1
 epsilon[2,0]: v[2,0,0] + v[2,0,1] + v[2,0,2] + v[2,0,3] + v[2,0,4] = 1
 epsilon[2,1]: v[2,1,0] + v[2,1,1] + v[2,1,2] + v[2,1,3] + v[2,1,4] = 1
 epsilon[2,2]: v[2,2,0] + v[2,2,1] + v[2,2,2] + v[2,2,3] + v[2,2,4] = 1
 epsilon[2,3]: v[2,3,0] + v[2,3,1] + v[2,3,2] + v[2,3,3] + v[2,3,4] = 1
 epsilon[2,4]: v[2,4,0] + v[2,4,1] + v[2,4,2] + v[2,4,3] + v[2,4,4] = 1
 epsilon[3,0]: v[3,0,0] + v[3,0,1] + v[3,0,2] + v[3,0,3] + v[3,0,4] = 1
 epsilon[3,1]: v[3,1,0] + v[3,1,1] + v[3,1,2] + v[3,1,3] + v[3,1,4] = 1
 epsilon[3,2]: v[3,2,0] + v[3,2,1] + v[3,2,2] + v[3,2,3] + v[3,2,4] = 1
 epsilon[3,3]: v[3,3,0] + v[3,3,1] + v[3,3,2] + v[3,3,3] + v[3,3,4] = 1
 epsilon[3,4]: v[3,4,0] + v[3,4,1] + v[3,4,2] + v[3,4,3] + v[3,4,4] = 1
 epsilon[4,0]: v[4,0,0] + v[4,0,1] + v[4,0,2] + v[4,0,3] + v[4,0,4] = 1
 epsilon[4,1]: v[4,1,0] + v[4,1,1] + v[4,1,2] + v[4,1,3] + v[4,1,4] = 1
 epsilon[4,2]: v[4,2,0] + v[4,2,1] + v[4,2,2] + v[4,2,3] + v[4,2,4] = 1
 epsilon[4,3]: v[4,3,0] + v[4,3,1] + v[4,3,2] + v[4,3,3] + v[4,3,4] = 1
 epsilon[4,4]: v[4,4,0] + v[4,4,1] + v[4,4,2] + v[4,4,3] + v[4,4,4] = 1
 epsilon[5,0]: v[5,0,0] + v[5,0,1] + v[5,0,2] + v[5,0,3] + v[5,0,4] = 1
 epsilon[5,1]: v[5,1,0] + v[5,1,1] + v[5,1,2] + v[5,1,3] + v[5,1,4] = 1
 epsilon[5,2]: v[5,2,0] + v[5,2,1] + v[5,2,2] + v[5,2,3] + v[5,2,4] = 1
 epsilon[5,3]: v[5,3,0] + v[5,3,1] + v[5,3,2] + v[5,3,3] + v[5,3,4] = 1
 epsilon[5,4]: v[5,4,0] + v[5,4,1] + v[5,4,2] + v[5,4,3] + v[5,4,4] = 1
 epsilon[6,0]: v[6,0,0] + v[6,0,1] + v[6,0,2] + v[6,0,3] + v[6,0,4] = 1
 epsilon[6,1]: v[6,1,0] + v[6,1,1] + v[6,1,2] + v[6,1,3] + v[6,1,4] = 1
 epsilon[6,2]: v[6,2,0] + v[6,2,1] + v[6,2,2] + v[6,2,3] + v[6,2,4] = 1
 epsilon[6,3]: v[6,3,0] + v[6,3,1] + v[6,3,2] + v[6,3,3] + v[6,3,4] = 1
 epsilon[6,4]: v[6,4,0] + v[6,4,1] + v[6,4,2] + v[6,4,3] + v[6,4,4] = 1
 epsilon[7,0]: v[7,0,0] + v[7,0,1] + v[7,0,2] + v[7,0,3] + v[7,0,4] = 1
 epsilon[7,1]: v[7,1,0] + v[7,1,1] + v[7,1,2] + v[7,1,3] + v[7,1,4] = 1
 epsilon[7,2]: v[7,2,0] + v[7,2,1] + v[7,2,2] + v[7,2,3] + v[7,2,4] = 1
 epsilon[7,3]: v[7,3,0] + v[7,3,1] + v[7,3,2] + v[7,3,3] + v[7,3,4] = 1
 epsilon[7,4]: v[7,4,0] + v[7,4,1] + v[7,4,2] + v[7,4,3] + v[7,4,4] = 1
 epsilon[8,0]: v[8,0,0] + v[8,0,1] + v[8,0,2] + v[8,0,3] + v[8,0,4] = 1
 epsilon[8,1]: v[8,1,0] + v[8,1,1] + v[8,1,2] + v[8,1,3] + v[8,1,4] = 1
 epsilon[8,2]: v[8,2,0] + v[8,2,1] + v[8,2,2] + v[8,2,3] + v[8,2,4] = 1
 epsilon[8,3]: v[8,3,0] + v[8,3,1] + v[8,3,2] + v[8,3,3] + v[8,3,4] = 1
 epsilon[8,4]: v[8,4,0] + v[8,4,1] + v[8,4,2] + v[8,4,3] + v[8,4,4] = 1
 epsilon[9,0]: v[9,0,0] + v[9,0,1] + v[9,0,2] + v[9,0,3] + v[9,0,4] = 1
 epsilon[9,1]: v[9,1,0] + v[9,1,1] + v[9,1,2] + v[9,1,3] + v[9,1,4] = 1
 epsilon[9,2]: v[9,2,0] + v[9,2,1] + v[9,2,2] + v[9,2,3] + v[9,2,4] = 1
 epsilon[9,3]: v[9,3,0] + v[9,3,1] + v[9,3,2] + v[9,3,3] + v[9,3,4] = 1
 epsilon[9,4]: v[9,4,0] + v[9,4,1] + v[9,4,2] + v[9,4,3] + v[9,4,4] = 1
 lamda[0,0]: u[0,0] <= 1
 lamda[0,1]: u[0,1] <= 1
 lamda[0,2]: u[0,2] <= 0
 lamda[0,3]: u[0,3] <= 0
 lamda[0,4]: u[0,4] <= 1
 lamda[1,0]: u[1,0] <= 1
 lamda[1,1]: u[1,1] <= 1
 lamda[1,2]: u[1,2] <= 0
 lamda[1,3]: u[1,3] <= 0
 lamda[1,4]: u[1,4] <= 1
 lamda[2,0]: u[2,0] <= 1
 lamda[2,1]: u[2,1] <= 1
 lamda[2,2]: u[2,2] <= 0
 lamda[2,3]: u[2,3] <= 0
 lamda[2,4]: u[2,4] <= 1
 lamda[3,0]: u[3,0] <= 1
 lamda[3,1]: u[3,1] <= 1
 lamda[3,2]: u[3,2] <= 0
 lamda[3,3]: u[3,3] <= 0
 lamda[3,4]: u[3,4] <= 1
 lamda[4,0]: u[4,0] <= 1
 lamda[4,1]: u[4,1] <= 1
 lamda[4,2]: u[4,2] <= 0
 lamda[4,3]: u[4,3] <= 0
 lamda[4,4]: u[4,4] <= 1
 lamda[5,0]: u[5,0] <= 1
 lamda[5,1]: u[5,1] <= 1
 lamda[5,2]: u[5,2] <= 0
 lamda[5,3]: u[5,3] <= 0
 lamda[5,4]: u[5,4] <= 1
 lamda[6,0]: u[6,0] <= 1
 lamda[6,1]: u[6,1] <= 1
 lamda[6,2]: u[6,2] <= 0
 lamda[6,3]: u[6,3] <= 0
 lamda[6,4]: u[6,4] <= 1
 lamda[7,0]: u[7,0] <= 1
 lamda[7,1]: u[7,1] <= 1
 lamda[7,2]: u[7,2] <= 0
 lamda[7,3]: u[7,3] <= 0
 lamda[7,4]: u[7,4] <= 1
 lamda[8,0]: u[8,0] <= 1
 lamda[8,1]: u[8,1] <= 1
 lamda[8,2]: u[8,2] <= 0
 lamda[8,3]: u[8,3] <= 0
 lamda[8,4]: u[8,4] <= 1
 lamda[9,0]: u[9,0] <= 1
 lamda[9,1]: u[9,1] <= 1
 lamda[9,2]: u[9,2] <= 0
 lamda[9,3]: u[9,3] <= 0
 lamda[9,4]: u[9,4] <= 1
 mu[0,0]: u[0,0] <= 1
 mu[0,1]: u[0,1] <= 1
 mu[0,2]: u[0,2] <= 1
 mu[0,3]: u[0,3] <= 0
 mu[0,4]: u[0,4] <= 1
 mu[1,0]: u[1,0] <= 1
 mu[1,1]: u[1,1] <= 0
 mu[1,2]: u[1,2] <= 1
 mu[1,3]: u[1,3] <= 1
 mu[1,4]: u[1,4] <= 1
 mu[2,0]: u[2,0] <= 1
 mu[2,1]: u[2,1] <= 1
 mu[2,2]: u[2,2] <= 0
 mu[2,3]: u[2,3] <= 1
 mu[2,4]: u[2,4] <= 1
 mu[3,0]: u[3,0] <= 1
 mu[3,1]: u[3,1] <= 1
 mu[3,2]: u[3,2] <= 1
 mu[3,3]: u[3,3] <= 0
 mu[3,4]: u[3,4] <= 1
 mu[4,0]: u[4,0] <= 1
 mu[4,1]: u[4,1] <= 1
 mu[4,2]: u[4,2] <= 1
 mu[4,3]: u[4,3] <= 0
 mu[4,4]: u[4,4] <= 1
 mu[5,0]: u[5,0] <= 1
 mu[5,1]: u[5,1] <= 0
 mu[5,2]: u[5,2] <= 1
 mu[5,3]: u[5,3] <= 1
 mu[5,4]: u[5,4] <= 1
 mu[6,0]: u[6,0] <= 1
 mu[6,1]: u[6,1] <= 1
 mu[6,2]: u[6,2] <= 0
 mu[6,3]: u[6,3] <= 1
 mu[6,4]: u[6,4] <= 1
 mu[7,0]: u[7,0] <= 1
 mu[7,1]: u[7,1] <= 0
 mu[7,2]: u[7,2] <= 1
 mu[7,3]: u[7,3] <= 1
 mu[7,4]: u[7,4] <= 1
 mu[8,0]: u[8,0] <= 1
 mu[8,1]: u[8,1] <= 1
 mu[8,2]: u[8,2] <= 0
 mu[8,3]: u[8,3] <= 1
 mu[8,4]: u[8,4] <= 1
 mu[9,0]: u[9,0] <= 1
 mu[9,1]: u[9,1] <= 1
 mu[9,2]: u[9,2] <= 1
 mu[9,3]: u[9,3] <= 0
 mu[9,4]: u[9,4] <= 1
 nu[0]: u[0,0] + u[0,1] + u[0,2] + u[0,3] + u[0,4] = 1
 nu[1]: u[1,0] + u[1,1] + u[1,2] + u[1,3] + u[1,4] = 0
 nu[2]: u[2,0] + u[2,1] + u[2,2] + u[2,3] + u[2,4] = 1
 nu[3]: u[3,0] + u[3,1] + u[3,2] + u[3,3] + u[3,4] = 1
 nu[4]: u[4,0] + u[4,1] + u[4,2] + u[4,3] + u[4,4] = 1
 nu[5]: u[5,0] + u[5,1] + u[5,2] + u[5,3] + u[5,4] = 0
 nu[6]: u[6,0] + u[6,1] + u[6,2] + u[6,3] + u[6,4] = 1
 nu[7]: u[7,0] + u[7,1] + u[7,2] + u[7,3] + u[7,4] = 0
 nu[8]: u[8,0] + u[8,1] + u[8,2] + u[8,3] + u[8,4] = 1
 nu[9]: u[9,0] + u[9,1] + u[9,2] + u[9,3] + u[9,4] = 1
Bounds
End
